% n20w140.005    33.45 331
numLocations = 21;
duration = duration = [|0, 31, 34, 28, 31, 39, 23, 26, 41, 36, 21, 3, 37, 38, 22, 3, 35, 34, 36, 12, 26
            |31, 0, 42, 3, 52, 30, 51, 45, 63, 34]; // array too long to display, dimensions: (421)

early = [0, 104, 19, 155, 222, 57, 0, 0, 0, 36, 255, 139, 45, 38, 118, 0, 0, 52, 47, 0, 200];
late = [384, 233, 160, 325, 353, 200, 79, 105, 131, 154, 361, 297, 195, 156, 237, 65, 115, 176, 187, 79, 315];